p edge 34 136
e 1 4
e 1 24
e 1 30
e 1 34
e 2 11
e 2 15
e 2 22
e 2 33
e 3 4
e 3 6
e 3 10
e 3 20
e 4 3
e 4 23
e 4 24
e 4 24
e 5 21
e 5 27
e 5 28
e 5 31
e 6 13
e 6 20
e 6 27
e 6 29
e 7 1
e 7 5
e 7 10
e 7 11
e 8 1
e 8 5
e 8 17
e 8 24
e 9 6
e 9 11
e 9 22
e 9 28
e 10 4
e 10 5
e 10 7
e 10 28
e 11 2
e 11 3
e 11 6
e 11 31
e 12 20
e 12 20
e 12 29
e 12 32
e 13 4
e 13 14
e 13 15
e 13 32
e 14 11
e 14 18
e 14 21
e 14 29
e 15 5
e 15 16
e 15 22
e 15 34
e 16 10
e 16 15
e 16 25
e 16 33
e 17 7
e 17 16
e 17 19
e 17 22
e 18 20
e 18 23
e 18 26
e 18 32
e 19 17
e 19 25
e 19 32
e 19 33
e 20 1
e 20 3
e 20 14
e 20 28
e 21 5
e 21 13
e 21 15
e 21 18
e 22 10
e 22 17
e 22 28
e 22 32
e 23 4
e 23 17
e 23 25
e 23 29
e 24 2
e 24 12
e 24 15
e 24 16
e 25 1
e 25 11
e 25 12
e 25 19
e 26 15
e 26 18
e 26 25
e 26 33
e 27 11
e 27 19
e 27 20
e 27 32
e 28 3
e 28 10
e 28 20
e 28 25
e 29 10
e 29 12
e 29 24
e 29 24
e 30 4
e 30 8
e 30 32
e 30 32
e 31 4
e 31 16
e 31 20
e 31 25
e 32 2
e 32 6
e 32 21
e 32 33
e 33 1
e 33 3
e 33 6
e 33 31
e 34 9
e 34 12
e 34 15
e 34 28
